Gurobi Optimizer version 9.1.2 build v9.1.2rc0 (linux64)
Thread count: 36 physical cores, 72 logical processors, using up to 32 threads
Optimize a model with 12 rows, 57 columns and 590 nonzeros
Model fingerprint: 0xf32eec78
Model has 47 quadratic constraints
Coefficient statistics:
  Matrix range     [2e-05, 3e+00]
  QMatrix range    [1e+00, 1e+00]
  QLMatrix range   [1e+00, 1e+00]
  Objective range  [8e-03, 7e-01]
  Bounds range     [1e+00, 1e+00]
  RHS range        [1e+00, 1e+00]
Presolve removed 9 rows and 0 columns

Continuous model is non-convex -- solving as a MIP.

Presolve removed 9 rows and 0 columns
Presolve time: 0.00s
Presolved: 189 rows, 57 columns, 443 nonzeros
Presolved model has 47 bilinear constraint(s)
Variable types: 57 continuous, 0 integer (0 binary)

Root relaxation: objective -1.743721e+00, 44 iterations, 0.00 seconds

    Nodes    |    Current Node    |     Objective Bounds      |     Work
 Expl Unexpl |  Obj  Depth IntInf | Incumbent    BestBd   Gap | It/Node Time

     0     0   -1.74372    0   38          -   -1.74372      -     -    0s
H    0     0                       0.6147548   -1.74372   384%     -    0s
     0     0   -1.64739    0    1    0.61475   -1.64739   368%     -    0s
H    0     0                      -1.6450460   -1.64739  0.14%     -    0s
     0     0     cutoff    0        -1.64505   -1.64505  0.00%     -    0s

Cutting planes:
  RLT: 25
  BQP: 3

Explored 1 nodes (76 simplex iterations) in 0.01 seconds
Thread count was 32 (of 72 available processors)

Solution count 2: -1.64505 0.614755 
No other solutions better than -1.64505

Optimal solution found (tolerance 1.00e-04)
Best objective -1.645045978473e+00, best bound -1.645045978473e+00, gap 0.0000%

User-callback calls 78, time in user-callback 0.00 sec
Gurobi Optimizer version 9.1.2 build v9.1.2rc0 (linux64)
Thread count: 36 physical cores, 72 logical processors, using up to 32 threads
Optimize a model with 60 rows, 300 columns and 15500 nonzeros
Model fingerprint: 0xcb7905d9
Model has 250 quadratic constraints
Coefficient statistics:
  Matrix range     [1e-06, 4e+00]
  QMatrix range    [1e+00, 1e+00]
  QLMatrix range   [1e+00, 1e+00]
  Objective range  [4e-04, 1e+00]
  Bounds range     [1e+00, 1e+00]
  RHS range        [1e+00, 1e+00]
Presolve removed 11 rows and 0 columns

Continuous model is non-convex -- solving as a MIP.

Presolve removed 11 rows and 0 columns
Presolve time: 0.01s
Presolved: 1049 rows, 300 columns, 14162 nonzeros
Presolved model has 250 bilinear constraint(s)
Variable types: 300 continuous, 0 integer (0 binary)

Root relaxation: objective -2.517060e+01, 354 iterations, 0.02 seconds

    Nodes    |    Current Node    |     Objective Bounds      |     Work
 Expl Unexpl |  Obj  Depth IntInf | Incumbent    BestBd   Gap | It/Node Time

     0     0  -25.17060    0  208          -  -25.17060      -     -    0s
     0     0  -22.17021    0  219          -  -22.17021      -     -    0s
     0     0  -21.65101    0  174          -  -21.65101      -     -    0s
     0     0  -21.59064    0  155          -  -21.59064      -     -    0s
     0     0  -21.56649    0  184          -  -21.56649      -     -    0s
     0     0  -21.56646    0  184          -  -21.56646      -     -    0s
     0     0  -21.56558    0  155          -  -21.56558      -     -    0s
H    0     0                     -15.3399986  -21.56558  40.6%     -    0s
H    0     0                     -16.2000269  -21.56558  33.1%     -    0s
H    0     0                     -16.3001456  -21.56558  32.3%     -    0s
     0     2  -21.56558    0  155  -16.30015  -21.56558  32.3%     -    0s
* 2126  2001              98     -16.3080926  -20.24879  24.2%  61.2    2s
* 2128  2001              99     -16.3080951  -20.24879  24.2%  61.1    2s
* 2130  2001             100     -16.3080957  -20.24879  24.2%  61.1    2s
* 2238  2136              94     -16.3101276  -20.24879  24.1%  59.8    2s
* 2239  2136              94     -16.3101477  -20.24879  24.1%  59.7    2s
* 2280  2036             101     -16.4693874  -20.24879  22.9%  59.0    2s
* 2281  2036             101     -16.4693905  -20.24879  22.9%  59.0    2s
* 2389  1886              52     -17.5870320  -20.24879  15.1%  57.5    2s
* 4128  1676              78     -17.5870964  -20.24879  15.1%  62.1    3s
* 4219  1635              80     -17.5871291  -20.24879  15.1%  61.9    3s
* 4220  1578              80     -17.5871293  -20.24879  15.1%  61.8    3s
* 4317  1530              77     -17.5871370  -20.24879  15.1%  61.5    3s
* 4319  1478              78     -17.5871506  -20.24879  15.1%  61.5    3s
* 4321  1428              79     -17.5871513  -20.24879  15.1%  61.4    3s
* 4322  1381              79     -17.5871513  -20.24879  15.1%  61.4    3s
* 4555  1396             126     -17.6782273  -20.24879  14.5%  61.2    3s
* 4653  1360             127     -17.6782796  -20.24879  14.5%  61.0    3s
* 4658  1318             125     -17.6783185  -20.24879  14.5%  60.9    3s
* 4907  1382              84     -17.6898869  -20.24879  14.5%  60.5    4s
* 4910  1346              86     -17.6911824  -20.24879  14.5%  60.5    4s
* 4911  1332              86     -17.6911857  -20.24879  14.5%  60.5    4s
* 4912  1332              85     -17.6911958  -20.24879  14.5%  60.4    4s
* 5323  1573              71     -18.1069102  -20.24879  11.8%  59.8    4s
* 6233  1807              68     -18.9884296  -20.24879  6.64%  59.4    4s
  7412  1769     cutoff   26       -18.98843  -20.24879  6.64%  60.4    5s
* 9839  1538              72     -18.9892575  -19.58865  3.16%  62.3    5s
* 9843  1538              73     -18.9892600  -19.58865  3.16%  62.3    5s
*11034  1761              69     -18.9892728  -19.40725  2.20%  61.7    6s
*11039  1761              69     -18.9892729  -19.40725  2.20%  61.7    6s
*11221  1761              84     -18.9981671  -19.40725  2.15%  61.0    6s
*11712  1817              82     -19.0001260  -19.27346  1.44%  60.0    6s
*12170  1884              81     -19.0185724  -19.27346  1.34%  58.9    6s
*13584  2125              75     -19.0311124  -19.14882  0.62%  56.0    7s
*15337  2331              67     -19.0319869  -19.13190  0.52%  52.1    7s
*15381  2331              72     -19.0496898  -19.13190  0.43%  52.0    7s
*15530  2331              62     -19.0512664  -19.13190  0.42%  51.6    7s
*16770  1615              73     -19.0512773  -19.09815  0.25%  49.0    7s
*16797  1615              60     -19.0516027  -19.09815  0.24%  49.0    7s
*16799  1615              61     -19.0516128  -19.09815  0.24%  49.0    7s
*16800  1615              61     -19.0516136  -19.09815  0.24%  49.0    7s
*16805  1615              63     -19.0516184  -19.09815  0.24%  48.9    7s
*17433  1588              67     -19.0517747  -19.08672  0.18%  47.9    7s
*17440  1588              69     -19.0517791  -19.08672  0.18%  47.9    7s
*17443  1588              69     -19.0517825  -19.08672  0.18%  47.9    7s
*17448  1588              70     -19.0517868  -19.08672  0.18%  47.9    7s
*17449  1588              70     -19.0517903  -19.08672  0.18%  47.9    7s
*17454  1588              70     -19.0517906  -19.08672  0.18%  47.9    7s
*17455  1588              69     -19.0517910  -19.08672  0.18%  47.9    7s
*17744  1588              63     -19.0521770  -19.08672  0.18%  47.4    7s
*18149  1833              76     -19.0522084  -19.07651  0.13%  46.6    7s
*18156  1833              76     -19.0522141  -19.07651  0.13%  46.6    7s
*18157  1833              76     -19.0522141  -19.07651  0.13%  46.6    7s
*18264  1833              68     -19.0535567  -19.06970  0.08%  46.4    7s
*19511  2077              76     -19.0549574  -19.06113  0.03%  43.9    8s
*20991  1773              63     -19.0550326  -19.05804  0.02%  41.2    8s
*20992  1773              63     -19.0550448  -19.05804  0.02%  41.2    8s
*21563  1773              69     -19.0550487  -19.05739  0.01%  40.2    8s
*21564  1773              68     -19.0550588  -19.05739  0.01%  40.2    8s
*22239  1773              76     -19.0550605  -19.05715  0.01%  39.2    8s
*22240  1773              76     -19.0550640  -19.05715  0.01%  39.2    8s
*22623  1607              75     -19.0550719  -19.05698  0.01%  38.6    8s
*22624  1607              75     -19.0550758  -19.05698  0.01%  38.5    8s
*22629  1607              75     -19.0550775  -19.05698  0.01%  38.5    8s
*22661  1607              74     -19.0550951  -19.05698  0.01%  38.5    8s
*22662  1607              74     -19.0550964  -19.05698  0.01%  38.5    8s
*22888  1607              76     -19.0551021  -19.05680  0.01%  38.2    8s
*22891  1607              76     -19.0551022  -19.05680  0.01%  38.2    8s
*22894  1607              75     -19.0551030  -19.05680  0.01%  38.2    8s
*23544  1607              76     -19.0551044  -19.05680  0.01%  37.2    8s
*23545  1607              76     -19.0551051  -19.05680  0.01%  37.2    8s
*23547  1607              76     -19.0551054  -19.05680  0.01%  37.2    8s

Explored 24008 nodes (878346 simplex iterations) in 8.44 seconds
Thread count was 32 (of 72 available processors)

Solution count 10: -19.0551 -19.0551 -19.0551 ... -19.0551

Optimal solution found (tolerance 1.00e-04)
Best objective -1.905510539223e+01, best bound -1.905679714839e+01, gap 0.0089%

User-callback calls 49043, time in user-callback 0.01 sec



objective value: -19.055105392226828
objective bound: -19.056797148389734
x_opt: [0.0, 1.0, 1.0, 0.0, 0.0, 0.0, 1.0, 1.0, 0.0, 0.0, 0.27330085312657765, 0.41946371276238903, 0.0, 1.0, 1.0, 1.0, 0.0, 1.0, 0.0, 0.0, 0.04495229160539927, 1.0, 1.0, 1.0, 0.0, 1.0, 1.0, 1.0, 0.0, 0.8547555386306724, 1.0, 0.7452672107284516, 0.0, 0.18358990673341108, 1.0, 1.0, 1.0, 1.0, 0.4663586679279163, 1.0, 0.8726392040500687, 0.08063848138104987, 1.0, 0.0, 0.0, 0.6614836378890419, 0.15775100283695714, 0.004865975838923004, 0.0, 1.0]
GUROBI solution time: 8.435996055603027

